5 5
0 9 3 23 2 32 1 93 4 45
4 28 1 52 0 11 3 19 2 64
0 65 4 73 1 57 2 66 3 4
2 29 1 4 0 1 3 92 4 18
4 13 2 70 3 49 1 47 0 86
-1
0 1 3 4 5
0 2 5
0 2 5
0 2 3 4 5
0 1 5
-2
9 96 235 286
109 260
205 385
34 45 191 180
20 317

357 3
0 17 10 7 24
16 6 3 23 12
15 2 21 9 13
1 18 22 8 14
5 20 11 4 19
